proyfinal/src/viki/013/experimentInOfficeAgust.take6.output/311ee4bc-0ba2-490a-953b-ccd61c71418d.als.dat
{'cnf.clauses': '118081',
 'cnf.totvars': '69608',
 'conflict literals': '58',
 'conflicts': '23',
 'decisions': '5011',
 'memused.mb': '15.44',
 'outcome': 'UNSAT',
 'propagations': '26520',
 'restarts': '1',
 'solver.msecs': 35,
 'task.msecs': 92}
