proyfinal/src/viki/013/experimentInOfficeAgust.take6.output/311ee4bc-0ba2-490a-953b-ccd61c71418d.als.out
Reading from standard input... Use '--help' for help.
============================[ Problem Statistics ]=============================
|                                                                             |
|  Number of variables:         69608                                         |
|  Number of clauses:          118081                                         |
|  Parse time:                   0.03 s                                       |
|                                                                             |
============================[ Search Statistics ]==============================
| Conflicts |          ORIGINAL         |          LEARNT          | Progress |
|           |    Vars  Clauses Literals |    Limit  Clauses Lit/Cl |          |
===============================================================================
===============================================================================
restarts              : 1
conflicts             : 23             (642 /sec)
decisions             : 5011           (0.00 % random) (139870 /sec)
propagations          : 26520          (740245 /sec)
conflict literals     : 58             (0.00 % deleted)
Memory used           : 15.44 MB
CPU time              : 0.035826 s

UNSATISFIABLE
